(set-info :origin "NTS benchmark converted to SMT-LIB2 using Eldarica (http://lara.epfl.ch/w/eldarica)")
(set-logic HORN)
(declare-fun p (Int Int Int Int Int Int Int Int Int Int Int) Bool)
(assert(forall((A Int)(B Int)(C Int)(D Int)(E Int)(F Int)(G Int)(H Int)(I Int)(J Int)(K Int)(L Int)(M Int)(N Int)(O Int)(P Int)(Q Int)(R Int)(S Int)(T Int)(U Int))(=>(and (and (= A 10) (and (and (and (and (and (and (and (and (and (= L B) (= M C)) (= N D)) (= O E)) (= P F)) (= Q G)) (= R H)) (= S I)) (= T J)) (= U K))) (and (and (and (and (not (not (= O T))) (not (not (= N S)))) (not (not (= M R)))) (not (not (= L Q)))) (not (not (= P U))))) (p A B C D E F G H I J K))))
(assert(forall((A Int)(B Int)(C Int)(D Int)(E Int)(F Int)(G Int)(H Int)(I Int)(J Int)(K Int)(L Int)(M Int)(N Int)(O Int)(P Int)(Q Int)(R Int)(S Int)(T Int)(U Int)(V Int)(W Int)(X Int)(Y Int)(Z Int)(A1 Int)(B1 Int)(C1 Int)(D1 Int)(E1 Int)(F1 Int)(G1 Int)(H1 Int)(I1 Int)(J1 Int)(K1 Int))(=>(and (or (or (or (or (or (or (or (or (or (or (or (and (and (and (and (= A 0) (= L 1)) (and (and (and (and (and (and (and (and (and (= M B) (= N C)) (= O D)) (= P E)) (= Q F)) (= R G)) (= S H)) (= T I)) (= U J)) (= V K))) (and (and (and (and (and (and (and (and (and (= M W) (= N X)) (= O Y)) (= P Z)) (= Q A1)) (= B1 C1)) (= D1 E1)) (= F1 G1)) (= H1 I1)) (= J1 K1))) (and (and (and (and (and (not (not (= J1 V))) (not (not (= H1 U)))) (not (not (= F1 T)))) (not (not (= B1 R)))) (not (not (= S (+ D1 1))))) (not (= J1 H1)))) (and (and (and (and (= A 0) (= L 1)) (and (and (and (and (and (and (and (and (and (= M B) (= N C)) (= O D)) (= P E)) (= Q F)) (= R G)) (= S H)) (= T I)) (= U J)) (= V K))) (and (and (and (and (and (and (and (and (and (= M W) (= N X)) (= O Y)) (= P Z)) (= Q A1)) (= D1 C1)) (= B1 E1)) (= F1 G1)) (= H1 I1)) (= J1 K1))) (and (and (and (and (and (not (not (= J1 V))) (not (not (= H1 U)))) (not (not (= F1 T)))) (not (not (= B1 S)))) (not (not (= D1 R)))) (not (not (= J1 H1)))))) (and (and (and (and (= A 1) (= L 2)) (and (and (and (and (and (and (and (and (and (= M B) (= N C)) (= O D)) (= P E)) (= Q F)) (= R G)) (= S H)) (= T I)) (= U J)) (= V K))) (and (and (and (and (and (and (and (and (and (= M W) (= N X)) (= O Y)) (= P Z)) (= Q A1)) (= J1 C1)) (= D1 E1)) (= B1 G1)) (= H1 I1)) (= F1 K1))) (and (and (and (and (and (not (not (= F1 V))) (not (not (= B1 T)))) (not (not (= D1 S)))) (not (not (= J1 R)))) (not (not (= U (+ H1 J1))))) (not (not (>= (+ J1 (- 1)) 0)))))) (and (and (and (and (= A 0) (= L 2)) (and (and (and (and (and (and (and (and (and (= M B) (= N C)) (= O D)) (= P E)) (= Q F)) (= R G)) (= S H)) (= T I)) (= U J)) (= V K))) (and (and (and (and (and (and (and (and (and (= M W) (= N X)) (= O Y)) (= P Z)) (= Q A1)) (= J1 C1)) (= H1 E1)) (= D1 G1)) (= B1 I1)) (= F1 K1))) (and (and (and (and (and (not (not (= F1 V))) (not (not (= B1 U)))) (not (not (= D1 T)))) (not (not (= J1 R)))) (not (not (= S (+ H1 1))))) (not (not (<= J1 0)))))) (and (and (and (and (= A 2) (= L 3)) (and (and (and (and (and (and (and (and (and (= M B) (= N C)) (= O D)) (= P E)) (= Q F)) (= R G)) (= S H)) (= T I)) (= U J)) (= V K))) (and (and (and (and (and (and (and (and (and (= M W) (= N X)) (= O Y)) (= P Z)) (= Q A1)) (= F1 C1)) (= D1 E1)) (= B1 G1)) (= H1 I1)) (= J1 K1))) (and (and (and (and (and (not (not (= J1 V))) (not (not (= H1 U)))) (not (not (= B1 T)))) (not (not (= D1 S)))) (not (not (>= (- J1 H1) R)))) (not (not (>= (+ R 0) 0)))))) (and (and (and (and (= A 3) (= L 4)) (and (and (and (and (and (and (and (and (and (= M B) (= N C)) (= O D)) (= P E)) (= Q F)) (= R G)) (= S H)) (= T I)) (= U J)) (= V K))) (and (and (and (and (and (and (and (and (and (= M W) (= N X)) (= O Y)) (= P Z)) (= Q A1)) (= H1 C1)) (= D1 E1)) (= B1 G1)) (= J1 I1)) (= F1 K1))) (and (and (and (and (and (not (not (= F1 V))) (not (not (= J1 U)))) (not (not (= B1 T)))) (not (not (= D1 S)))) (not (not (= H1 R)))) (not (not (>= (+ J1 0) 0)))))) (and (and (and (and (= A 0) (= L 6)) (and (and (and (and (and (and (and (and (and (= M B) (= N C)) (= O D)) (= P E)) (= Q F)) (= R G)) (= S H)) (= T I)) (= U J)) (= V K))) (and (and (and (and (and (and (and (and (and (= M W) (= N X)) (= O Y)) (= P Z)) (= Q A1)) (= H1 C1)) (= J1 E1)) (= D1 G1)) (= B1 I1)) (= F1 K1))) (and (and (and (and (not (not (= F1 V))) (not (not (= B1 U)))) (not (not (= D1 T)))) (not (not (= H1 R)))) (not (not (= S (+ J1 1))))))) (and (and (and (and (= A 7) (= L 8)) (and (and (and (and (and (and (and (and (and (= M B) (= N C)) (= O D)) (= P E)) (= Q F)) (= R G)) (= S H)) (= T I)) (= U J)) (= V K))) (and (and (and (and (and (and (and (and (and (= M W) (= N X)) (= O Y)) (= P Z)) (= Q A1)) (= J1 C1)) (= H1 E1)) (= D1 G1)) (= B1 I1)) (= F1 K1))) (and (and (and (and (not (not (= D1 T))) (not (not (= H1 S)))) (not (not (= J1 R)))) (not (not (= (+ U 0) 0)))) (not (not (>= (+ V (- 1)) 0)))))) (and (and (and (and (= A 4) (= L 0)) (and (and (and (and (and (and (and (and (and (= M B) (= N C)) (= O D)) (= P E)) (= Q F)) (= R G)) (= S H)) (= T I)) (= U J)) (= V K))) (and (and (and (and (and (and (and (and (and (= M W) (= N X)) (= O Y)) (= P Z)) (= Q A1)) (= H1 C1)) (= J1 E1)) (= D1 G1)) (= B1 I1)) (= F1 K1))) (and (and (and (and (and (not (not (= F1 V))) (not (not (= B1 U)))) (not (not (= D1 T)))) (not (not (= H1 R)))) (not (not (= S (+ J1 (- 1)))))) (not (not (>= (+ J1 (- 1)) 0)))))) (and (and (and (and (= A 8) (= L 0)) (and (and (and (and (and (and (and (and (and (= M B) (= N C)) (= O D)) (= P E)) (= Q F)) (= R G)) (= S H)) (= T I)) (= U J)) (= V K))) (and (and (and (and (and (and (and (and (and (= M W) (= N X)) (= O Y)) (= P Z)) (= Q A1)) (= H1 C1)) (= D1 E1)) (= J1 G1)) (= B1 I1)) (= F1 K1))) (and (and (and (and (and (not (not (= F1 V))) (not (not (= B1 U)))) (not (not (= D1 S)))) (not (not (= H1 R)))) (not (not (= T (+ J1 (- 1)))))) (not (not (>= (+ J1 (- 1)) 0)))))) (and (and (and (and (= A 0) (= L 9)) (and (and (and (and (and (and (and (and (and (= M B) (= N C)) (= O D)) (= P E)) (= Q F)) (= R G)) (= S H)) (= T I)) (= U J)) (= V K))) (and (and (and (and (and (and (and (and (and (= M W) (= N X)) (= O Y)) (= P Z)) (= Q A1)) (= H1 C1)) (= D1 E1)) (= J1 G1)) (= B1 I1)) (= F1 K1))) (and (and (and (and (not (not (= F1 V))) (not (not (= B1 U)))) (not (not (= D1 S)))) (not (not (= H1 R)))) (not (not (= T (+ J1 1))))))) (and (and (and (and (= A 9) (= L 10)) (and (and (and (and (and (and (and (and (and (= M B) (= N C)) (= O D)) (= P E)) (= Q F)) (= R G)) (= S H)) (= T I)) (= U J)) (= V K))) (and (and (and (and (and (and (and (and (and (= M W) (= N X)) (= O Y)) (= P Z)) (= Q A1)) (= J1 C1)) (= B1 E1)) (= F1 G1)) (= H1 I1)) (= D1 K1))) (and (and (and (and (not (not (= D1 V))) (not (not (= H1 U)))) (not (not (= J1 R)))) (not (not (= (+ S 0) 0)))) (not (not (= (+ T 0) 0)))))) (p L W X Y Z A1 C1 E1 G1 I1 K1)) (p A B C D E F G H I J K))))
(assert(not (exists((A Int)(B Int)(C Int)(D Int)(E Int)(F Int)(G Int)(H Int)(I Int)(J Int)(K Int)(L Int)(M Int)(N Int)(O Int)(P Int)(Q Int)(R Int)(S Int)(T Int)(U Int)(V Int)(W Int)(X Int)(Y Int)(Z Int))(and (and (and (= A 4) (and (and (and (and (and (and (and (and (and (= B C) (= D E)) (= F G)) (= H I)) (= J K)) (= L M)) (= N O)) (= P Q)) (= R S)) (= T U))) (and (and (and (and (and (not (not (= T V))) (not (not (= R W)))) (not (not (= P X)))) (not (not (= N Y)))) (not (not (= L Z)))) (not (not (<= R (- 1)))))) (p A C E G I K M O Q S U)))))
(check-sat)
